\Problem name: 

Minimize
obj: x0 + x1 + x2 + x3 + x4
Subject To
cons0:  5 x0 + 2 x4 >= 16
cons1:  8 x1 + 2 x2 + 2 x3 >= 8
cons2:  3 x2 + 6 x3 + 3 x4 >= 24
cons3:  x1 + x3 >= 1
cons4:  4 x0 + 4 x2 + 4 x4 >= 32
cons5:  - x0 + 16 x1 >= 0
cons6:  24 x1 - x2 >= 0
cons7:  8 x1 - x3 >= 0
cons8:  32 x1 - x4 >= 0
Bounds
 0 <= x0 <= 16
 0 <= x1 <= 1
 0 <= x2 <= 24
 0 <= x3 <= 8
 0 <= x4 <= 32
Integers
x0 x1 x2 x3 x4 
End
